p tw 169 30421 2 
1 3 
1 4 
1 5 
1 6 
1 7 
1 8 
1 9 
1 10 
1 11 
1 12 
1 13 
1 14 
1 24 
1 27 
1 28 
1 40 
1 42 
1 53 
1 58 
1 66 
1 72 
1 79 
1 90 
1 92 
1 96 
1 105 
1 108 
1 118 
1 126 
1 131 
1 143 
1 144 
1 151 
1 157 
1 166 
2 3 
2 4 
2 5 
2 6 
2 7 
2 8 
2 9 
2 10 
2 11 
2 12 
2 13 
2 15 
2 19 
2 27 
2 28 
2 41 
2 52 
2 54 
2 64 
2 67 
2 76 
2 80 
2 85 
2 93 
2 100 
2 106 
2 107 
2 119 
2 125 
2 132 
2 140 
2 145 
2 148 
2 158 
2 160 
3 4 
3 5 
3 6 
3 7 
3 8 
3 9 
3 10 
3 11 
3 12 
3 13 
3 15 
3 16 
3 29 
3 30 
3 42 
3 44 
3 55 
3 59 
3 68 
3 75 
3 81 
3 91 
3 94 
3 103 
3 107 
3 112 
3 120 
3 128 
3 133 
3 139 
3 144 
3 146 
3 159 
3 162 
4 5 
4 6 
4 7 
4 8 
4 9 
4 10 
4 11 
4 12 
4 13 
4 17 
4 23 
4 30 
4 39 
4 43 
4 51 
4 56 
4 57 
4 69 
4 71 
4 79 
4 82 
4 95 
4 102 
4 108 
4 113 
4 119 
4 121 
4 133 
4 134 
4 147 
4 150 
4 160 
4 164 
5 6 
5 7 
5 8 
5 9 
5 10 
5 11 
5 12 
5 13 
5 18 
5 26 
5 31 
5 38 
5 44 
5 50 
5 57 
5 62 
5 70 
5 74 
5 83 
5 86 
5 96 
5 98 
5 109 
5 110 
5 118 
5 122 
5 134 
5 135 
5 146 
5 148 
5 158 
5 161 
6 7 
6 8 
6 9 
6 10 
6 11 
6 12 
6 13 
6 16 
6 19 
6 32 
6 35 
6 45 
6 47 
6 53 
6 58 
6 67 
6 71 
6 83 
6 84 
6 95 
6 97 
6 110 
6 116 
6 123 
6 127 
6 136 
6 141 
6 149 
6 156 
6 162 
6 163 
7 8 
7 9 
7 10 
7 11 
7 12 
7 13 
7 20 
7 22 
7 31 
7 33 
7 40 
7 46 
7 59 
7 65 
7 69 
7 72 
7 85 
7 89 
7 98 
7 101 
7 106 
7 111 
7 124 
7 129 
7 137 
7 138 
7 149 
7 150 
7 159 
7 163 
8 9 
8 10 
8 11 
8 12 
8 13 
8 17 
8 21 
8 32 
8 34 
8 46 
8 47 
8 60 
8 63 
8 73 
8 77 
8 80 
8 86 
8 92 
8 99 
8 112 
8 117 
8 120 
8 125 
8 135 
8 138 
8 151 
8 153 
8 164 
8 165 
9 10 
9 11 
9 12 
9 13 
9 14 
9 22 
9 35 
9 36 
9 41 
9 48 
9 55 
9 61 
9 74 
9 78 
9 82 
9 87 
9 99 
9 100 
9 111 
9 113 
9 122 
9 126 
9 136 
9 139 
9 152 
9 155 
9 165 
9 167 
10 11 
10 12 
10 13 
10 20 
10 23 
10 34 
10 36 
10 48 
10 49 
10 54 
10 62 
10 66 
10 75 
10 84 
10 88 
10 94 
10 101 
10 114 
10 115 
10 127 
10 130 
10 140 
10 142 
10 147 
10 153 
10 161 
10 166 
11 12 
11 13 
11 18 
11 24 
11 33 
11 37 
11 43 
11 50 
11 60 
11 63 
11 68 
11 76 
11 88 
11 89 
11 102 
11 104 
11 105 
11 115 
11 123 
11 128 
11 132 
11 141 
11 152 
11 154 
11 167 
11 168 
12 13 
12 21 
12 25 
12 29 
12 38 
12 45 
12 51 
12 56 
12 64 
12 70 
12 77 
12 87 
12 90 
12 93 
12 103 
12 114 
12 116 
12 124 
12 129 
12 131 
12 142 
12 154 
12 155 
12 168 
12 169 
13 25 
13 26 
13 37 
13 39 
13 49 
13 52 
13 61 
13 65 
13 73 
13 78 
13 81 
13 91 
13 97 
13 104 
13 109 
13 117 
13 121 
13 130 
13 137 
13 143 
13 145 
13 156 
13 157 
13 169 
14 15 
14 16 
14 17 
14 18 
14 19 
14 20 
14 21 
14 22 
14 23 
14 24 
14 25 
14 26 
14 27 
14 36 
14 40 
14 41 
14 53 
14 55 
14 66 
14 78 
14 79 
14 82 
14 92 
14 99 
14 105 
14 111 
14 118 
14 122 
14 131 
14 136 
14 144 
14 155 
14 157 
14 167 
15 16 
15 17 
15 18 
15 19 
15 20 
15 21 
15 22 
15 23 
15 24 
15 25 
15 26 
15 28 
15 30 
15 41 
15 44 
15 54 
15 59 
15 67 
15 75 
15 80 
15 91 
15 93 
15 103 
15 106 
15 112 
15 119 
15 128 
15 132 
15 139 
15 144 
15 145 
15 158 
15 162 
16 17 
16 18 
16 19 
16 20 
16 21 
16 22 
16 23 
16 24 
16 25 
16 26 
16 29 
16 35 
16 42 
16 47 
16 53 
16 55 
16 67 
16 68 
16 81 
16 83 
16 94 
16 95 
16 107 
16 116 
16 120 
16 127 
16 133 
16 141 
16 146 
16 156 
16 159 
16 163 
17 18 
17 19 
17 20 
17 21 
17 22 
17 23 
17 24 
17 25 
17 26 
17 30 
17 32 
17 43 
17 46 
17 56 
17 63 
17 69 
17 77 
17 80 
17 82 
17 92 
17 95 
17 108 
17 117 
17 120 
17 121 
17 134 
17 135 
17 147 
17 153 
17 160 
17 165 
18 19 
18 20 
18 21 
18 22 
18 23 
18 24 
18 25 
18 26 
18 31 
18 33 
18 43 
18 44 
18 57 
18 60 
18 68 
18 70 
18 83 
18 88 
18 96 
18 104 
18 105 
18 109 
18 122 
18 123 
18 132 
18 135 
18 148 
18 152 
18 161 
18 168 
19 20 
19 21 
19 22 
19 23 
19 24 
19 25 
19 26 
19 27 
19 32 
19 45 
19 52 
19 58 
19 64 
19 71 
19 76 
19 84 
19 85 
19 97 
19 100 
19 107 
19 110 
19 123 
19 125 
19 136 
19 140 
19 148 
19 149 
19 160 
19 162 
20 21 
20 22 
20 23 
20 24 
20 25 
20 26 
20 33 
20 34 
20 46 
20 48 
20 54 
20 59 
20 66 
20 72 
20 84 
20 85 
20 94 
20 98 
20 111 
20 115 
20 124 
20 130 
20 137 
20 142 
20 147 
20 150 
20 161 
20 163 
21 22 
21 23 
21 24 
21 25 
21 26 
21 29 
21 34 
21 45 
21 47 
21 56 
21 60 
21 70 
21 73 
21 86 
21 87 
21 93 
21 99 
21 112 
21 114 
21 124 
21 125 
21 131 
21 138 
21 151 
21 154 
21 164 
21 169 
22 23 
22 24 
22 25 
22 26 
22 31 
22 35 
22 40 
22 48 
22 61 
22 65 
22 69 
22 74 
22 87 
22 89 
22 100 
22 101 
22 106 
22 113 
22 126 
22 129 
22 138 
22 139 
22 149 
22 152 
22 159 
22 165 
23 24 
23 25 
23 26 
23 36 
23 39 
23 49 
23 51 
23 57 
23 62 
23 71 
23 75 
23 79 
23 88 
23 101 
23 102 
23 113 
23 114 
23 119 
23 127 
23 133 
23 140 
23 150 
23 153 
23 164 
23 166 
24 25 
24 26 
24 28 
24 37 
24 42 
24 50 
24 58 
24 63 
24 72 
24 76 
24 89 
24 90 
24 96 
24 102 
24 108 
24 115 
24 126 
24 128 
24 141 
24 143 
24 151 
24 154 
24 166 
24 167 
25 26 
25 37 
25 38 
25 49 
25 51 
25 61 
25 64 
25 73 
25 77 
25 81 
25 90 
25 97 
25 103 
25 109 
25 116 
25 121 
25 129 
25 137 
25 142 
25 145 
25 155 
25 157 
25 168 
26 38 
26 39 
26 50 
26 52 
26 62 
26 65 
26 74 
26 78 
26 86 
26 91 
26 98 
26 104 
26 110 
26 117 
26 118 
26 130 
26 134 
26 143 
26 146 
26 156 
26 158 
26 169 
27 28 
27 29 
27 30 
27 31 
27 32 
27 33 
27 34 
27 35 
27 36 
27 37 
27 38 
27 39 
27 40 
27 52 
27 53 
27 64 
27 66 
27 76 
27 79 
27 85 
27 92 
27 100 
27 105 
27 107 
27 118 
27 125 
27 131 
27 140 
27 144 
27 148 
27 157 
27 160 
28 29 
28 30 
28 31 
28 32 
28 33 
28 34 
28 35 
28 36 
28 37 
28 38 
28 39 
28 41 
28 42 
28 54 
28 58 
28 67 
28 72 
28 80 
28 90 
28 93 
28 96 
28 106 
28 108 
28 119 
28 126 
28 132 
28 143 
28 145 
28 151 
28 158 
28 166 
29 30 
29 31 
29 32 
29 33 
29 34 
29 35 
29 36 
29 37 
29 38 
29 39 
29 42 
29 45 
29 55 
29 56 
29 68 
29 70 
29 81 
29 87 
29 93 
29 94 
29 107 
29 114 
29 120 
29 124 
29 131 
29 133 
29 146 
29 154 
29 159 
29 169 
30 31 
30 32 
30 33 
30 34 
30 35 
30 36 
30 37 
30 38 
30 39 
30 43 
30 44 
30 56 
30 59 
30 69 
30 75 
30 82 
30 91 
30 95 
30 103 
30 108 
30 112 
30 121 
30 128 
30 134 
30 139 
30 144 
30 147 
30 160 
30 162 
31 32 
31 33 
31 34 
31 35 
31 36 
31 37 
31 38 
31 39 
31 40 
31 44 
31 57 
31 65 
31 69 
31 70 
31 83 
31 89 
31 96 
31 101 
31 106 
31 109 
31 122 
31 129 
31 135 
31 138 
31 148 
31 149 
31 159 
31 161 
32 33 
32 34 
32 35 
32 36 
32 37 
32 38 
32 39 
32 45 
32 46 
32 58 
32 63 
32 71 
32 77 
32 80 
32 84 
32 92 
32 97 
32 110 
32 117 
32 120 
32 123 
32 135 
32 136 
32 149 
32 153 
32 162 
32 165 
33 34 
33 35 
33 36 
33 37 
33 38 
33 39 
33 43 
33 46 
33 59 
33 60 
33 68 
33 72 
33 85 
33 88 
33 98 
33 104 
33 105 
33 111 
33 123 
33 124 
33 132 
33 137 
33 150 
33 152 
33 163 
33 168 
34 35 
34 36 
34 37 
34 38 
34 39 
34 47 
34 48 
34 54 
34 60 
34 66 
34 73 
34 84 
34 86 
34 94 
34 99 
34 112 
34 115 
34 125 
34 130 
34 138 
34 142 
34 147 
34 151 
34 161 
34 164 
35 36 
35 37 
35 38 
35 39 
35 47 
35 48 
35 53 
35 61 
35 67 
35 74 
35 83 
35 87 
35 95 
35 100 
35 113 
35 116 
35 126 
35 127 
35 139 
35 141 
35 152 
35 156 
35 163 
35 165 
36 37 
36 38 
36 39 
36 41 
36 49 
36 55 
36 62 
36 75 
36 78 
36 82 
36 88 
36 99 
36 101 
36 111 
36 114 
36 122 
36 127 
36 136 
36 140 
36 153 
36 155 
36 166 
36 167 
37 38 
37 39 
37 49 
37 50 
37 61 
37 63 
37 73 
37 76 
37 81 
37 89 
37 97 
37 102 
37 109 
37 115 
37 121 
37 128 
37 137 
37 141 
37 145 
37 154 
37 157 
37 167 
38 39 
38 50 
38 51 
38 62 
38 64 
38 74 
38 77 
38 86 
38 90 
38 98 
38 103 
38 110 
38 116 
38 118 
38 129 
38 134 
38 142 
38 146 
38 155 
38 158 
38 168 
39 51 
39 52 
39 57 
39 65 
39 71 
39 78 
39 79 
39 91 
39 102 
39 104 
39 113 
39 117 
39 119 
39 130 
39 133 
39 143 
39 150 
39 156 
39 164 
39 169 
40 41 
40 42 
40 43 
40 44 
40 45 
40 46 
40 47 
40 48 
40 49 
40 50 
40 51 
40 52 
40 53 
40 65 
40 66 
40 69 
40 79 
40 89 
40 92 
40 101 
40 105 
40 106 
40 118 
40 129 
40 131 
40 138 
40 144 
40 149 
40 157 
40 159 
41 42 
41 43 
41 44 
41 45 
41 46 
41 47 
41 48 
41 49 
41 50 
41 51 
41 52 
41 54 
41 55 
41 67 
41 78 
41 80 
41 82 
41 93 
41 99 
41 106 
41 111 
41 119 
41 122 
41 132 
41 136 
41 145 
41 155 
41 158 
41 167 
42 43 
42 44 
42 45 
42 46 
42 47 
42 48 
42 49 
42 50 
42 51 
42 52 
42 55 
42 58 
42 68 
42 72 
42 81 
42 90 
42 94 
42 96 
42 107 
42 108 
42 120 
42 126 
42 133 
42 143 
42 146 
42 151 
42 159 
42 166 
43 44 
43 45 
43 46 
43 47 
43 48 
43 49 
43 50 
43 51 
43 52 
43 56 
43 60 
43 68 
43 69 
43 82 
43 88 
43 95 
43 104 
43 105 
43 108 
43 121 
43 123 
43 132 
43 134 
43 147 
43 152 
43 160 
43 168 
44 45 
44 46 
44 47 
44 48 
44 49 
44 50 
44 51 
44 52 
44 57 
44 59 
44 70 
44 75 
44 83 
44 91 
44 96 
44 103 
44 109 
44 112 
44 122 
44 128 
44 135 
44 139 
44 144 
44 148 
44 161 
44 162 
45 46 
45 47 
45 48 
45 49 
45 50 
45 51 
45 52 
45 56 
45 58 
45 70 
45 71 
45 84 
45 87 
45 93 
45 97 
45 110 
45 114 
45 123 
45 124 
45 131 
45 136 
45 149 
45 154 
45 162 
45 169 
46 47 
46 48 
46 49 
46 50 
46 51 
46 52 
46 59 
46 63 
46 72 
46 77 
46 80 
46 85 
46 92 
46 98 
46 111 
46 117 
46 120 
46 124 
46 135 
46 137 
46 150 
46 153 
46 163 
46 165 
47 48 
47 49 
47 50 
47 51 
47 52 
47 53 
47 60 
47 67 
47 73 
47 83 
47 86 
47 95 
47 99 
47 112 
47 116 
47 125 
47 127 
47 138 
47 141 
47 151 
47 156 
47 163 
47 164 
48 49 
48 50 
48 51 
48 52 
48 54 
48 61 
48 66 
48 74 
48 84 
48 87 
48 94 
48 100 
48 113 
48 115 
48 126 
48 130 
48 139 
48 142 
48 147 
48 152 
48 161 
48 165 
49 50 
49 51 
49 52 
49 61 
49 62 
49 73 
49 75 
49 81 
49 88 
49 97 
49 101 
49 109 
49 114 
49 121 
49 127 
49 137 
49 140 
49 145 
49 153 
49 157 
49 166 
50 51 
50 52 
50 62 
50 63 
50 74 
50 76 
50 86 
50 89 
50 98 
50 102 
50 110 
50 115 
50 118 
50 128 
50 134 
50 141 
50 146 
50 154 
50 158 
50 167 
51 52 
51 57 
51 64 
51 71 
51 77 
51 79 
51 90 
51 102 
51 103 
51 113 
51 116 
51 119 
51 129 
51 133 
51 142 
51 150 
51 155 
51 164 
51 168 
52 64 
52 65 
52 76 
52 78 
52 85 
52 91 
52 100 
52 104 
52 107 
52 117 
52 125 
52 130 
52 140 
52 143 
52 148 
52 156 
52 160 
52 169 
53 54 
53 55 
53 56 
53 57 
53 58 
53 59 
53 60 
53 61 
53 62 
53 63 
53 64 
53 65 
53 66 
53 67 
53 79 
53 83 
53 92 
53 95 
53 105 
53 116 
53 118 
53 127 
53 131 
53 141 
53 144 
53 156 
53 157 
53 163 
54 55 
54 56 
54 57 
54 58 
54 59 
54 60 
54 61 
54 62 
54 63 
54 64 
54 65 
54 66 
54 67 
54 80 
54 84 
54 93 
54 94 
54 106 
54 115 
54 119 
54 130 
54 132 
54 142 
54 145 
54 147 
54 158 
54 161 
55 56 
55 57 
55 58 
55 59 
55 60 
55 61 
55 62 
55 63 
55 64 
55 65 
55 68 
55 78 
55 81 
55 82 
55 94 
55 99 
55 107 
55 111 
55 120 
55 122 
55 133 
55 136 
55 146 
55 155 
55 159 
55 167 
56 57 
56 58 
56 59 
56 60 
56 61 
56 62 
56 63 
56 64 
56 65 
56 69 
56 70 
56 82 
56 87 
56 93 
56 95 
56 108 
56 114 
56 121 
56 124 
56 131 
56 134 
56 147 
56 154 
56 160 
56 169 
57 58 
57 59 
57 60 
57 61 
57 62 
57 63 
57 64 
57 65 
57 70 
57 71 
57 79 
57 83 
57 96 
57 102 
57 109 
57 113 
57 119 
57 122 
57 133 
57 135 
57 148 
57 150 
57 161 
57 164 
58 59 
58 60 
58 61 
58 62 
58 63 
58 64 
58 65 
58 71 
58 72 
58 84 
58 90 
58 96 
58 97 
58 108 
58 110 
58 123 
58 126 
58 136 
58 143 
58 149 
58 151 
58 162 
58 166 
59 60 
59 61 
59 62 
59 63 
59 64 
59 65 
59 72 
59 75 
59 85 
59 91 
59 98 
59 103 
59 111 
59 112 
59 124 
59 128 
59 137 
59 139 
59 144 
59 150 
59 162 
59 163 
60 61 
60 62 
60 63 
60 64 
60 65 
60 68 
60 73 
60 86 
60 88 
60 99 
60 104 
60 105 
60 112 
60 123 
60 125 
60 132 
60 138 
60 151 
60 152 
60 164 
60 168 
61 62 
61 63 
61 64 
61 65 
61 73 
61 74 
61 81 
61 87 
61 97 
61 100 
61 109 
61 113 
61 121 
61 126 
61 137 
61 139 
61 145 
61 152 
61 157 
61 165 
62 63 
62 64 
62 65 
62 74 
62 75 
62 86 
62 88 
62 98 
62 101 
62 110 
62 114 
62 118 
62 127 
62 134 
62 140 
62 146 
62 153 
62 158 
62 166 
63 64 
63 65 
63 76 
63 77 
63 80 
63 89 
63 92 
63 102 
63 115 
63 117 
63 120 
63 128 
63 135 
63 141 
63 153 
63 154 
63 165 
63 167 
64 65 
64 76 
64 77 
64 85 
64 90 
64 100 
64 103 
64 107 
64 116 
64 125 
64 129 
64 140 
64 142 
64 148 
64 155 
64 160 
64 168 
65 69 
65 78 
65 89 
65 91 
65 101 
65 104 
65 106 
65 117 
65 129 
65 130 
65 138 
65 143 
65 149 
65 156 
65 159 
65 169 
66 67 
66 68 
66 69 
66 70 
66 71 
66 72 
66 73 
66 74 
66 75 
66 76 
66 77 
66 78 
66 79 
66 84 
66 92 
66 94 
66 105 
66 115 
66 118 
66 130 
66 131 
66 142 
66 144 
66 147 
66 157 
66 161 
67 68 
67 69 
67 70 
67 71 
67 72 
67 73 
67 74 
67 75 
67 76 
67 77 
67 78 
67 80 
67 83 
67 93 
67 95 
67 106 
67 116 
67 119 
67 127 
67 132 
67 141 
67 145 
67 156 
67 158 
67 163 
68 69 
68 70 
68 71 
68 72 
68 73 
68 74 
68 75 
68 76 
68 77 
68 78 
68 81 
68 88 
68 94 
68 104 
68 105 
68 107 
68 120 
68 123 
68 132 
68 133 
68 146 
68 152 
68 159 
68 168 
69 70 
69 71 
69 72 
69 73 
69 74 
69 75 
69 76 
69 77 
69 78 
69 82 
69 89 
69 95 
69 101 
69 106 
69 108 
69 121 
69 129 
69 134 
69 138 
69 147 
69 149 
69 159 
69 160 
70 71 
70 72 
70 73 
70 74 
70 75 
70 76 
70 77 
70 78 
70 83 
70 87 
70 93 
70 96 
70 109 
70 114 
70 122 
70 124 
70 131 
70 135 
70 148 
70 154 
70 161 
70 169 
71 72 
71 73 
71 74 
71 75 
71 76 
71 77 
71 78 
71 79 
71 84 
71 97 
71 102 
71 110 
71 113 
71 119 
71 123 
71 133 
71 136 
71 149 
71 150 
71 162 
71 164 
72 73 
72 74 
72 75 
72 76 
72 77 
72 78 
72 85 
72 90 
72 96 
72 98 
72 108 
72 111 
72 124 
72 126 
72 137 
72 143 
72 150 
72 151 
72 163 
72 166 
73 74 
73 75 
73 76 
73 77 
73 78 
73 81 
73 86 
73 97 
73 99 
73 109 
73 112 
73 121 
73 125 
73 137 
73 138 
73 145 
73 151 
73 157 
73 164 
74 75 
74 76 
74 77 
74 78 
74 86 
74 87 
74 98 
74 100 
74 110 
74 113 
74 118 
74 126 
74 134 
74 139 
74 146 
74 152 
74 158 
74 165 
75 76 
75 77 
75 78 
75 88 
75 91 
75 101 
75 103 
75 112 
75 114 
75 127 
75 128 
75 139 
75 140 
75 144 
75 153 
75 162 
75 166 
76 77 
76 78 
76 85 
76 89 
76 100 
76 102 
76 107 
76 115 
76 125 
76 128 
76 140 
76 141 
76 148 
76 154 
76 160 
76 167 
77 78 
77 80 
77 90 
77 92 
77 103 
77 116 
77 117 
77 120 
77 129 
77 135 
77 142 
77 153 
77 155 
77 165 
77 168 
78 82 
78 91 
78 99 
78 104 
78 111 
78 117 
78 122 
78 130 
78 136 
78 143 
78 155 
78 156 
78 167 
78 169 
79 80 
79 81 
79 82 
79 83 
79 84 
79 85 
79 86 
79 87 
79 88 
79 89 
79 90 
79 91 
79 92 
79 102 
79 105 
79 113 
79 118 
79 119 
79 131 
79 133 
79 144 
79 150 
79 157 
79 164 
80 81 
80 82 
80 83 
80 84 
80 85 
80 86 
80 87 
80 88 
80 89 
80 90 
80 91 
80 92 
80 93 
80 106 
80 117 
80 119 
80 120 
80 132 
80 135 
80 145 
80 153 
80 158 
80 165 
81 82 
81 83 
81 84 
81 85 
81 86 
81 87 
81 88 
81 89 
81 90 
81 91 
81 94 
81 97 
81 107 
81 109 
81 120 
81 121 
81 133 
81 137 
81 145 
81 146 
81 157 
81 159 
82 83 
82 84 
82 85 
82 86 
82 87 
82 88 
82 89 
82 90 
82 91 
82 95 
82 99 
82 108 
82 111 
82 121 
82 122 
82 134 
82 136 
82 147 
82 155 
82 160 
82 167 
83 84 
83 85 
83 86 
83 87 
83 88 
83 89 
83 90 
83 91 
83 95 
83 96 
83 109 
83 116 
83 122 
83 127 
83 135 
83 141 
83 148 
83 156 
83 161 
83 163 
84 85 
84 86 
84 87 
84 88 
84 89 
84 90 
84 91 
84 94 
84 97 
84 110 
84 115 
84 123 
84 130 
84 136 
84 142 
84 147 
84 149 
84 161 
84 162 
85 86 
85 87 
85 88 
85 89 
85 90 
85 91 
85 98 
85 100 
85 107 
85 111 
85 124 
85 125 
85 137 
85 140 
85 148 
85 150 
85 160 
85 163 
86 87 
86 88 
86 89 
86 90 
86 91 
86 98 
86 99 
86 110 
86 112 
86 118 
86 125 
86 134 
86 138 
86 146 
86 151 
86 158 
86 164 
87 88 
87 89 
87 90 
87 91 
87 93 
87 100 
87 113 
87 114 
87 124 
87 126 
87 131 
87 139 
87 152 
87 154 
87 165 
87 169 
88 89 
88 90 
88 91 
88 101 
88 104 
88 105 
88 114 
88 123 
88 127 
88 132 
88 140 
88 152 
88 153 
88 166 
88 168 
89 90 
89 91 
89 101 
89 102 
89 106 
89 115 
89 128 
89 129 
89 138 
89 141 
89 149 
89 154 
89 159 
89 167 
90 91 
90 96 
90 103 
90 108 
90 116 
90 126 
90 129 
90 142 
90 143 
90 151 
90 155 
90 166 
90 168 
91 103 
91 104 
91 112 
91 117 
91 128 
91 130 
91 139 
91 143 
91 144 
91 156 
91 162 
91 169 
92 93 
92 94 
92 95 
92 96 
92 97 
92 98 
92 99 
92 100 
92 101 
92 102 
92 103 
92 104 
92 105 
92 117 
92 118 
92 120 
92 131 
92 135 
92 144 
92 153 
92 157 
92 165 
93 94 
93 95 
93 96 
93 97 
93 98 
93 99 
93 100 
93 101 
93 102 
93 103 
93 104 
93 106 
93 114 
93 119 
93 124 
93 131 
93 132 
93 145 
93 154 
93 158 
93 169 
94 95 
94 96 
94 97 
94 98 
94 99 
94 100 
94 101 
94 102 
94 103 
94 104 
94 107 
94 115 
94 120 
94 130 
94 133 
94 142 
94 146 
94 147 
94 159 
94 161 
95 96 
95 97 
95 98 
95 99 
95 100 
95 101 
95 102 
95 103 
95 104 
95 108 
95 116 
95 121 
95 127 
95 134 
95 141 
95 147 
95 156 
95 160 
95 163 
96 97 
96 98 
96 99 
96 100 
96 101 
96 102 
96 103 
96 104 
96 108 
96 109 
96 122 
96 126 
96 135 
96 143 
96 148 
96 151 
96 161 
96 166 
97 98 
97 99 
97 100 
97 101 
97 102 
97 103 
97 104 
97 109 
97 110 
97 121 
97 123 
97 136 
97 137 
97 145 
97 149 
97 157 
97 162 
98 99 
98 100 
98 101 
98 102 
98 103 
98 104 
98 110 
98 111 
98 118 
98 124 
98 134 
98 137 
98 146 
98 150 
98 158 
98 163 
99 100 
99 101 
99 102 
99 103 
99 104 
99 111 
99 112 
99 122 
99 125 
99 136 
99 138 
99 151 
99 155 
99 164 
99 167 
100 101 
100 102 
100 103 
100 104 
100 107 
100 113 
100 125 
100 126 
100 139 
100 140 
100 148 
100 152 
100 160 
100 165 
101 102 
101 103 
101 104 
101 106 
101 114 
101 127 
101 129 
101 138 
101 140 
101 149 
101 153 
101 159 
101 166 
102 103 
102 104 
102 113 
102 115 
102 119 
102 128 
102 133 
102 141 
102 150 
102 154 
102 164 
102 167 
103 104 
103 112 
103 116 
103 128 
103 129 
103 139 
103 142 
103 144 
103 155 
103 162 
103 168 
104 105 
104 117 
104 123 
104 130 
104 132 
104 143 
104 152 
104 156 
104 168 
104 169 
105 106 
105 107 
105 108 
105 109 
105 110 
105 111 
105 112 
105 113 
105 114 
105 115 
105 116 
105 117 
105 118 
105 123 
105 131 
105 132 
105 144 
105 152 
105 157 
105 168 
106 107 
106 108 
106 109 
106 110 
106 111 
106 112 
106 113 
106 114 
106 115 
106 116 
106 117 
106 119 
106 129 
106 132 
106 138 
106 145 
106 149 
106 158 
106 159 
107 108 
107 109 
107 110 
107 111 
107 112 
107 113 
107 114 
107 115 
107 116 
107 117 
107 120 
107 125 
107 133 
107 140 
107 146 
107 148 
107 159 
107 160 
108 109 
108 110 
108 111 
108 112 
108 113 
108 114 
108 115 
108 116 
108 117 
108 121 
108 126 
108 134 
108 143 
108 147 
108 151 
108 160 
108 166 
109 110 
109 111 
109 112 
109 113 
109 114 
109 115 
109 116 
109 117 
109 121 
109 122 
109 135 
109 137 
109 145 
109 148 
109 157 
109 161 
110 111 
110 112 
110 113 
110 114 
110 115 
110 116 
110 117 
110 118 
110 123 
110 134 
110 136 
110 146 
110 149 
110 158 
110 162 
111 112 
111 113 
111 114 
111 115 
111 116 
111 117 
111 122 
111 124 
111 136 
111 137 
111 150 
111 155 
111 163 
111 167 
112 113 
112 114 
112 115 
112 116 
112 117 
112 125 
112 128 
112 138 
112 139 
112 144 
112 151 
112 162 
112 164 
113 114 
113 115 
113 116 
113 117 
113 119 
113 126 
113 133 
113 139 
113 150 
113 152 
113 164 
113 165 
114 115 
114 116 
114 117 
114 124 
114 127 
114 131 
114 140 
114 153 
114 154 
114 166 
114 169 
115 116 
115 117 
115 128 
115 130 
115 141 
115 142 
115 147 
115 154 
115 161 
115 167 
116 117 
116 127 
116 129 
116 141 
116 142 
116 155 
116 156 
116 163 
116 168 
117 120 
117 130 
117 135 
117 143 
117 153 
117 156 
117 165 
117 169 
118 119 
118 120 
118 121 
118 122 
118 123 
118 124 
118 125 
118 126 
118 127 
118 128 
118 129 
118 130 
118 131 
118 134 
118 144 
118 146 
118 157 
118 158 
119 120 
119 121 
119 122 
119 123 
119 124 
119 125 
119 126 
119 127 
119 128 
119 129 
119 130 
119 132 
119 133 
119 145 
119 150 
119 158 
119 164 
120 121 
120 122 
120 123 
120 124 
120 125 
120 126 
120 127 
120 128 
120 129 
120 130 
120 133 
120 135 
120 146 
120 153 
120 159 
120 165 
121 122 
121 123 
121 124 
121 125 
121 126 
121 127 
121 128 
121 129 
121 130 
121 134 
121 137 
121 145 
121 147 
121 157 
121 160 
122 123 
122 124 
122 125 
122 126 
122 127 
122 128 
122 129 
122 130 
122 135 
122 136 
122 148 
122 155 
122 161 
122 167 
123 124 
123 125 
123 126 
123 127 
123 128 
123 129 
123 130 
123 132 
123 136 
123 149 
123 152 
123 162 
123 168 
124 125 
124 126 
124 127 
124 128 
124 129 
124 130 
124 131 
124 137 
124 150 
124 154 
124 163 
124 169 
125 126 
125 127 
125 128 
125 129 
125 130 
125 138 
125 140 
125 148 
125 151 
125 160 
125 164 
126 127 
126 128 
126 129 
126 130 
126 139 
126 143 
126 151 
126 152 
126 165 
126 166 
127 128 
127 129 
127 130 
127 140 
127 141 
127 153 
127 156 
127 163 
127 166 
128 129 
128 130 
128 139 
128 141 
128 144 
128 154 
128 162 
128 167 
129 130 
129 138 
129 142 
129 149 
129 155 
129 159 
129 168 
130 142 
130 143 
130 147 
130 156 
130 161 
130 169 
131 132 
131 133 
131 134 
131 135 
131 136 
131 137 
131 138 
131 139 
131 140 
131 141 
131 142 
131 143 
131 144 
131 154 
131 157 
131 169 
132 133 
132 134 
132 135 
132 136 
132 137 
132 138 
132 139 
132 140 
132 141 
132 142 
132 143 
132 145 
132 152 
132 158 
132 168 
133 134 
133 135 
133 136 
133 137 
133 138 
133 139 
133 140 
133 141 
133 142 
133 143 
133 146 
133 150 
133 159 
133 164 
134 135 
134 136 
134 137 
134 138 
134 139 
134 140 
134 141 
134 142 
134 143 
134 146 
134 147 
134 158 
134 160 
135 136 
135 137 
135 138 
135 139 
135 140 
135 141 
135 142 
135 143 
135 148 
135 153 
135 161 
135 165 
136 137 
136 138 
136 139 
136 140 
136 141 
136 142 
136 143 
136 149 
136 155 
136 162 
136 167 
137 138 
137 139 
137 140 
137 141 
137 142 
137 143 
137 145 
137 150 
137 157 
137 163 
138 139 
138 140 
138 141 
138 142 
138 143 
138 149 
138 151 
138 159 
138 164 
139 140 
139 141 
139 142 
139 143 
139 144 
139 152 
139 162 
139 165 
140 141 
140 142 
140 143 
140 148 
140 153 
140 160 
140 166 
141 142 
141 143 
141 154 
141 156 
141 163 
141 167 
142 143 
142 147 
142 155 
142 161 
142 168 
143 151 
143 156 
143 166 
143 169 
144 145 
144 146 
144 147 
144 148 
144 149 
144 150 
144 151 
144 152 
144 153 
144 154 
144 155 
144 156 
144 157 
144 162 
145 146 
145 147 
145 148 
145 149 
145 150 
145 151 
145 152 
145 153 
145 154 
145 155 
145 156 
145 157 
145 158 
146 147 
146 148 
146 149 
146 150 
146 151 
146 152 
146 153 
146 154 
146 155 
146 156 
146 158 
146 159 
147 148 
147 149 
147 150 
147 151 
147 152 
147 153 
147 154 
147 155 
147 156 
147 160 
147 161 
148 149 
148 150 
148 151 
148 152 
148 153 
148 154 
148 155 
148 156 
148 160 
148 161 
149 150 
149 151 
149 152 
149 153 
149 154 
149 155 
149 156 
149 159 
149 162 
150 151 
150 152 
150 153 
150 154 
150 155 
150 156 
150 163 
150 164 
151 152 
151 153 
151 154 
151 155 
151 156 
151 164 
151 166 
152 153 
152 154 
152 155 
152 156 
152 165 
152 168 
153 154 
153 155 
153 156 
153 165 
153 166 
154 155 
154 156 
154 167 
154 169 
155 156 
155 167 
155 168 
156 163 
156 169 
157 158 
157 159 
157 160 
157 161 
157 162 
157 163 
157 164 
157 165 
157 166 
157 167 
157 168 
157 169 
158 159 
158 160 
158 161 
158 162 
158 163 
158 164 
158 165 
158 166 
158 167 
158 168 
158 169 
159 160 
159 161 
159 162 
159 163 
159 164 
159 165 
159 166 
159 167 
159 168 
159 169 
160 161 
160 162 
160 163 
160 164 
160 165 
160 166 
160 167 
160 168 
160 169 
161 162 
161 163 
161 164 
161 165 
161 166 
161 167 
161 168 
161 169 
162 163 
162 164 
162 165 
162 166 
162 167 
162 168 
162 169 
163 164 
163 165 
163 166 
163 167 
163 168 
163 169 
164 165 
164 166 
164 167 
164 168 
164 169 
165 166 
165 167 
165 168 
165 169 
166 167 
166 168 
166 169 
167 168 
167 169 
168 169 
